303 5
10 10 10 10 10 

0 0 0 0 0 0 3 2 14 26 
0 0 0 0 0 0 5 3 4 5 6 8 
9 0 0 0 1 0 3 12 9 7 
9 0 0 0 8 0 3 12 9 7 
10 0 0 0 10 0 3 12 11 9 
1 0 0 0 7 0 1 7 
5 0 0 0 7 0 2 11 10 
8 0 0 0 9 0 2 11 10 
3 0 0 0 9 0 1 10 
4 0 0 0 10 0 1 13 
7 0 0 0 7 0 1 13 
7 0 0 0 7 0 1 13 
0 0 0 0 0 0 1 38 
0 0 0 0 0 0 7 15 17 18 21 22 23 24 
6 0 0 0 6 0 1 16 
4 0 0 0 8 0 1 20 
9 0 0 0 3 0 1 19 
3 0 0 0 10 0 1 19 
2 0 0 0 9 0 1 25 
5 0 0 0 10 0 1 25 
7 0 0 0 5 0 1 25 
7 0 0 0 8 0 1 25 
5 0 0 0 9 0 1 25 
8 0 0 0 7 0 1 25 
0 0 0 0 0 0 1 38 
0 0 0 0 0 0 5 27 28 30 32 36 
6 0 0 0 4 0 3 35 31 29 
5 0 0 0 6 0 2 31 29 
8 0 0 0 6 0 2 34 33 
9 0 0 0 10 0 1 31 
8 0 0 0 7 0 1 33 
5 0 0 0 6 0 1 34 
1 0 0 0 10 0 1 37 
1 0 0 0 8 0 1 37 
10 0 0 0 10 0 1 37 
10 0 0 0 8 0 1 37 
0 0 0 0 0 0 1 38 
0 0 0 0 0 0 3 39 51 93 
0 0 0 0 0 0 5 40 41 42 43 49 
4 1 0 0 0 0 2 47 45 
1 8 0 0 0 0 2 47 44 
3 6 0 0 0 0 2 48 47 
1 6 0 0 0 0 1 44 
7 10 0 0 0 0 1 46 
4 10 0 0 0 0 1 46 
6 10 0 0 0 0 1 50 
4 8 0 0 0 0 1 50 
10 10 0 0 0 0 1 50 
10 6 0 0 0 0 1 50 
0 0 0 0 0 0 3 135 167 179 
0 0 0 0 0 0 5 52 55 56 59 62 
6 2 3 1 0 2 4 67 60 57 53 
1 10 6 6 0 8 2 71 54 
6 8 9 8 0 8 8 91 77 72 68 66 65 61 58 
9 7 10 10 0 10 7 80 79 76 72 70 63 60 
2 10 9 10 0 10 6 78 77 68 66 65 58 
5 6 4 10 0 9 10 91 80 77 76 74 70 69 68 66 64 
3 6 5 8 0 7 6 80 79 76 74 70 63 
6 10 9 10 0 10 6 79 78 76 72 69 64 
7 10 6 7 0 5 4 74 71 68 65 
9 7 6 9 0 4 4 79 78 76 69 
4 6 8 8 0 8 4 82 77 73 68 
1 7 5 8 0 8 3 85 84 69 
10 6 8 9 0 9 2 85 65 
3 7 7 10 0 5 3 90 84 73 
10 3 4 7 0 9 2 79 73 
5 9 9 9 0 6 2 78 76 
5 10 7 8 0 4 3 90 85 75 
7 9 10 10 0 10 2 90 73 
1 7 8 3 0 7 2 90 73 
3 6 9 10 0 7 2 82 77 
5 7 7 10 0 6 2 84 75 
9 6 7 6 0 10 1 75 
8 9 8 3 0 9 5 90 89 88 86 84 
1 10 10 7 0 9 3 89 83 81 
6 4 4 8 0 5 3 87 86 82 
7 7 10 5 0 10 2 84 81 
9 9 8 7 0 10 2 84 81 
8 10 10 7 0 7 3 87 86 85 
3 4 10 10 0 10 2 86 82 
2 10 7 9 0 10 2 88 86 
2 8 7 4 0 4 2 90 89 
6 7 10 7 0 4 1 87 
8 6 6 10 0 7 1 87 
2 8 10 5 0 5 1 88 
1 10 9 10 0 7 1 92 
2 9 9 7 0 4 1 92 
6 6 6 7 0 9 1 92 
5 8 6 6 0 8 1 92 
7 6 10 3 0 10 1 92 
1 10 4 8 0 10 1 92 
0 0 0 0 0 0 1 303 
0 0 0 0 0 0 4 94 96 97 100 
10 0 3 7 5 3 4 103 102 99 95 
7 0 6 2 8 5 2 104 98 
8 0 10 10 8 9 5 133 110 105 104 101 
3 0 8 6 8 8 5 110 109 107 105 101 
3 0 10 9 6 8 5 133 110 109 105 101 
7 0 6 9 8 6 8 122 117 113 112 110 109 108 107 
8 0 6 4 10 10 3 106 103 102 
10 0 10 10 10 5 8 122 118 116 114 113 112 111 106 
3 0 5 10 6 6 4 122 116 115 104 
2 0 7 10 6 10 7 118 117 116 114 113 112 109 
9 0 9 3 4 7 4 117 114 111 109 
3 0 5 10 5 9 4 121 118 116 115 
2 0 7 5 10 6 3 121 117 115 
5 0 10 3 6 10 3 133 121 111 
9 0 3 7 7 5 3 118 116 114 
7 0 9 9 8 6 4 127 126 123 119 
2 0 10 8 9 8 2 121 115 
7 0 6 5 10 10 3 132 126 119 
3 0 8 7 7 5 3 132 127 119 
7 0 8 10 5 5 3 132 126 119 
5 0 10 6 10 10 3 132 126 120 
7 0 8 9 7 8 2 132 119 
5 0 9 9 5 5 4 132 130 126 124 
5 0 10 5 10 7 3 131 126 123 
10 0 10 9 10 8 2 124 123 
3 0 6 7 9 10 1 120 
8 0 8 4 7 10 3 130 125 124 
9 0 9 10 10 7 3 130 127 125 
1 0 7 10 10 8 1 123 
7 0 7 8 4 9 4 132 130 129 128 
1 0 8 9 6 8 2 131 128 
3 0 3 10 5 9 2 129 128 
5 0 8 4 10 5 2 129 128 
7 0 6 9 6 9 1 131 
6 0 8 10 5 6 1 134 
4 0 10 10 9 9 1 134 
9 0 6 5 6 9 1 134 
4 0 10 7 10 7 1 134 
5 0 5 10 7 7 1 134 
7 0 6 5 8 8 1 134 
0 0 0 0 0 0 1 303 
0 0 0 0 0 0 6 136 137 138 139 140 141 
9 0 8 0 2 5 3 144 143 142 
9 0 5 0 4 8 3 151 144 142 
9 0 9 0 9 10 3 151 144 142 
6 0 5 0 7 10 4 149 148 147 143 
9 0 6 0 10 5 3 149 143 142 
6 0 5 0 10 6 3 148 147 143 
8 0 8 0 4 10 5 152 150 147 146 145 
4 0 10 0 5 4 5 152 151 150 146 145 
5 0 8 0 7 9 3 149 148 145 
9 0 5 0 7 5 3 155 154 153 
7 0 10 0 8 9 3 155 154 153 
5 0 7 0 8 8 3 155 154 153 
9 0 9 0 8 3 3 155 154 153 
2 0 9 0 8 6 3 155 154 153 
6 0 2 0 9 6 2 154 153 
8 0 8 0 9 7 3 157 156 155 
9 0 7 0 10 10 1 153 
5 0 10 0 8 9 3 161 157 156 
4 0 4 0 10 4 4 165 161 159 156 
2 0 7 0 8 7 4 165 161 159 158 
5 0 9 0 9 10 2 160 158 
6 0 9 0 5 8 2 165 159 
9 0 10 0 5 7 2 164 162 
8 0 6 0 10 7 1 160 
6 0 7 0 9 8 2 164 163 
5 0 10 0 10 8 2 164 163 
10 0 4 0 5 10 1 163 
1 0 8 0 10 7 1 166 
4 0 10 0 4 9 1 166 
8 0 10 0 7 10 1 166 
0 0 0 0 0 0 1 303 
0 0 0 0 0 0 3 168 169 173 
2 0 0 3 0 0 3 176 171 170 
3 0 0 9 0 0 2 172 170 
7 0 0 9 0 0 3 177 175 174 
3 0 0 8 0 0 2 175 174 
1 0 0 9 0 0 1 176 
7 0 0 5 0 0 1 174 
7 0 0 6 0 0 1 178 
2 0 0 10 0 0 1 178 
9 0 0 10 0 0 1 178 
8 0 0 6 0 0 1 178 
0 0 0 0 0 0 3 211 233 245 
0 0 0 0 0 0 6 180 181 182 183 185 209 
6 2 0 5 3 0 4 193 187 186 184 
6 8 0 9 10 0 5 208 199 191 188 187 
10 10 0 6 10 0 6 204 200 199 198 191 188 
10 10 0 5 6 0 5 199 198 193 191 188 
3 10 0 10 6 0 4 204 199 198 188 
10 3 0 9 7 0 5 207 203 194 193 190 
9 9 0 9 8 0 3 203 190 189 
4 10 0 5 6 0 5 204 203 198 197 194 
10 4 0 10 9 0 2 203 189 
9 10 0 8 5 0 3 206 197 194 
7 9 0 10 8 0 3 204 197 195 
5 8 0 10 6 0 2 205 192 
2 9 0 4 7 0 1 194 
3 8 0 4 8 0 2 204 196 
3 2 0 7 6 0 1 195 
3 7 0 8 6 0 1 196 
7 9 0 9 10 0 1 201 
4 10 0 4 10 0 1 202 
3 8 0 7 10 0 1 205 
5 9 0 7 8 0 1 205 
8 10 0 6 6 0 1 203 
4 8 0 6 7 0 1 210 
5 4 0 10 8 0 1 210 
1 8 0 10 5 0 1 210 
10 5 0 8 8 0 1 210 
4 5 0 8 7 0 1 210 
10 9 0 6 9 0 1 210 
4 8 0 9 9 0 1 210 
8 5 0 9 10 0 1 210 
7 8 0 7 7 0 1 210 
0 0 0 0 0 0 1 303 
0 0 0 0 0 0 4 212 213 215 217 
2 0 0 0 4 3 3 218 216 214 
3 0 0 0 3 5 3 224 218 216 
3 0 0 0 10 6 5 231 224 221 220 219 
1 0 0 0 9 8 2 219 218 
4 0 0 0 10 10 4 231 221 220 219 
3 0 0 0 9 7 5 231 224 223 222 221 
10 0 0 0 8 10 3 231 221 220 
10 0 0 0 8 10 4 226 225 223 222 
2 0 0 0 9 7 3 225 223 222 
8 0 0 0 4 9 3 230 226 225 
1 0 0 0 10 9 3 230 229 227 
4 0 0 0 7 3 3 229 228 227 
4 0 0 0 4 6 2 228 227 
5 0 0 0 3 5 1 228 
1 0 0 0 9 7 1 227 
2 0 0 0 10 10 1 232 
9 0 0 0 7 10 1 232 
6 0 0 0 10 8 1 232 
4 0 0 0 6 8 1 232 
8 0 0 0 10 9 1 232 
0 0 0 0 0 0 1 303 
0 0 0 0 0 0 7 234 236 239 240 241 242 243 
8 1 0 0 0 0 2 237 235 
9 8 0 0 0 0 1 238 
1 10 0 0 0 0 1 237 
8 10 0 0 0 0 1 244 
9 7 0 0 0 0 1 244 
5 5 0 0 0 0 1 244 
8 9 0 0 0 0 1 244 
3 9 0 0 0 0 1 244 
6 6 0 0 0 0 1 244 
9 10 0 0 0 0 1 244 
0 0 0 0 0 0 3 267 279 291 
0 0 0 0 0 0 8 246 247 248 249 250 251 252 255 
8 0 0 0 8 4 4 260 258 256 254 
6 0 0 0 5 7 3 258 254 253 
3 0 0 0 4 6 2 258 253 
10 0 0 0 9 9 2 258 253 
7 0 0 0 9 9 3 260 258 257 
1 0 0 0 10 8 3 260 258 257 
10 0 0 0 9 10 1 253 
3 0 0 0 4 8 2 260 257 
7 0 0 0 10 4 2 263 257 
8 0 0 0 7 9 2 263 257 
3 0 0 0 10 7 4 265 263 261 259 
4 0 0 0 10 10 3 265 261 259 
9 0 0 0 7 4 3 263 262 261 
10 0 0 0 6 9 2 264 262 
9 0 0 0 8 5 2 263 261 
8 0 0 0 8 7 1 266 
4 0 0 0 4 8 1 266 
2 0 0 0 9 10 1 266 
1 0 0 0 6 7 1 266 
6 0 0 0 7 9 1 266 
0 0 0 0 0 0 1 303 
0 0 0 0 0 0 4 268 269 270 272 
6 0 5 0 0 0 4 277 276 273 271 
1 0 9 0 0 0 3 277 276 271 
5 0 5 0 0 0 3 277 273 271 
8 0 7 0 0 0 2 275 274 
7 0 6 0 0 0 2 276 275 
7 0 5 0 0 0 1 274 
6 0 10 0 0 0 1 278 
5 0 10 0 0 0 1 278 
7 0 10 0 0 0 1 278 
3 0 8 0 0 0 1 278 
0 0 0 0 0 0 1 303 
0 0 0 0 0 0 5 280 281 282 283 284 
1 0 1 0 0 0 3 289 286 285 
6 0 9 0 0 0 3 289 286 285 
7 0 9 0 0 0 3 289 288 286 
9 0 9 0 0 0 2 287 285 
8 0 8 0 0 0 2 288 287 
2 0 5 0 0 0 1 288 
3 0 9 0 0 0 1 287 
9 0 7 0 0 0 1 290 
10 0 9 0 0 0 1 290 
8 0 9 0 0 0 1 290 
0 0 0 0 0 0 1 303 
0 0 0 0 0 0 5 292 293 294 300 301 
9 0 0 0 0 1 3 299 298 295 
5 0 0 0 0 10 2 298 297 
7 0 0 0 0 5 2 297 296 
7 0 0 0 0 9 1 296 
4 0 0 0 0 7 1 302 
1 0 0 0 0 10 1 302 
7 0 0 0 0 10 1 302 
10 0 0 0 0 8 1 302 
5 0 0 0 0 5 1 302 
9 0 0 0 0 10 1 302 
0 0 0 0 0 0 1 303 
0 0 0 0 0 0 0 
